c numero: 48
c nombre: n-45-d-0.1
c densidad: 0.1
p edges 45 89
e 1 3
e 1 6
e 1 21
e 1 27
e 2 8
e 2 17
e 2 40
e 2 45
e 3 6
e 3 18
e 3 24
e 3 25
e 3 33
e 3 36
e 3 40
e 4 27
e 5 23
e 6 18
e 6 25
e 6 37
e 7 8
e 7 12
e 7 16
e 7 17
e 7 21
e 7 29
e 7 41
e 8 20
e 9 13
e 9 18
e 9 29
e 10 19
e 10 40
e 11 28
e 11 37
e 11 45
e 12 19
e 12 20
e 12 27
e 12 28
e 13 31
e 13 45
e 14 16
e 15 36
e 16 19
e 16 31
e 16 40
e 17 23
e 17 27
e 17 41
e 17 43
e 18 20
e 18 22
e 18 38
e 18 42
e 18 43
e 19 22
e 19 28
e 19 42
e 20 35
e 21 22
e 22 29
e 22 43
e 23 24
e 23 36
e 25 35
e 25 42
e 25 44
e 26 33
e 26 35
e 27 29
e 27 44
e 28 30
e 28 38
e 28 41
e 29 44
e 30 44
e 31 39
e 31 40
e 31 44
e 32 39
e 32 44
e 33 34
e 33 42
e 33 43
e 33 45
e 34 42
e 34 43
e 39 44
